&FORCE_EVAL
  METHOD QS
   &PRINT
     &FORCES ON
      ADD_LAST NUMERIC
      FILENAME __STD_OUT__
    &END FORCES 
   &END PRINT 
  &DFT
    BASIS_SET_FILE_NAME /home/jordan/alsaidi/Research/psp/GTH/GTH_BASIS_SETS2 
    POTENTIAL_FILE_NAME /home/jordan/alsaidi/Research/psp/GTH/POTENTIAL_QS 
    WFN_RESTART_FILE_NAME ./temp-RESTART.wfn 
    &MGRID
      CUTOFF 350 
      NGRIDS 5 
    &END MGRID
#    &PRINT
#       &LOWDIN ON
#       &END LOWDIN 
#       &MULLIKEN ON 
#       &END MULLIKEN
#       &MO_CUBES
#          NHOMO 6
#          NLUMO 6
#       &END MO_CUBES
#    &END PRINT
    &QS
       EPS_DEFAULT 1.0E-12
       MAP_CONSISTENT
#       EXTRAPOLATION LINEAR_PS 
    &END QS
    &SCF
#      SCF_GUESS ATOMIC
      EPS_SCF 1.0E-6
      MAX_SCF 30
      &OUTER_SCF ON 
        MAX_SCF 20
        EPS_SCF  1.0E-6
#        OPTIMIZER DIIS 
      &END OUTER_SCF
      &OT ON 
#        N_DIIS 7
        MINIMIZER DIIS 
        PRECONDITIONER FULL_ALL
        ENERGY_GAP 0.001
      &END
      &PRINT
        &RESTART
          &EACH
            QS_SCF 25
          &END EACH
          ADD_LAST NUMERIC
        &END RESTART
      &END PRINT 
    &END SCF
    &XC
      &XC_FUNCTIONAL PBE
      &END XC_FUNCTIONAL
      &vdW_POTENTIAL
       DISPERSION_FUNCTIONAL PAIR_POTENTIAL
       &PAIR_POTENTIAL
          TYPE DFTD2
          REFERENCE_FUNCTIONAL PBE
       &END PAIR_POTENTIAL
      &END vdW_POTENTIAL
    &END XC
  &END DFT
  &SUBSYS
    &CELL
     ABC 10 10 10 
    &END CELL
    &COORD
     He 0 0 0
     He 0 0 2
  &END COORD
  &KIND He
      BASIS_SET DZVP-MOLOPT-SR-GTH-q2
      POTENTIAL GTH-PADE-q2
  &END KIND
  &KIND He_ghost
    BASIS_SET DZVP-MOLOPT-SR-GTH-q2
    GHOST
  &END KIND
 &END SUBSYS
&END FORCE_EVAL
&GLOBAL
  PROJECT temp
  RUN_TYPE ENERGY_force 
  PRINT_LEVEL LOW
&END GLOBAL
