CdSe                                 
   1.0     
     30.0   0.0    0.0
     0.0   30.0    0.0
     0.0   0.0    30.0
   Cd   Se   P   C   O   H  
   33   33   1   1   3   5
Selective dynamics
Direct
0.212164841	-0.046986345	0.083370685	T	T	T
-0.198542801	0.027463799	0.013117345	T	T	T
-0.175930335	-0.004149278	0.134436989	T	T	T
-0.135073529	0.019735375	-0.087593279	T	T	T
-0.120805365	0.15604325	0.013310397	T	T	T
-0.148445197	0.088106026	0.116820865	T	T	T
0.189989417	0.023316059	0.009114437	T	T	T
-0.064772315	0.193864577	0.082976407	T	T	T
0.096788304	-0.146577435	0.133632809	T	T	T
-0.148181516	-0.078817489	-0.009244469	T	T	T
-0.12998686	-0.148243173	0.083448179	T	T	T
-0.045931911	-0.042485835	-0.111100136	T	T	T
-0.073788695	0.037447336	0.004295913	T	T	T
-0.068853085	-0.042163264	0.117339676	T	T	T
-0.073664697	0.028069075	0.203694575	T	T	T
-0.014203637	0.064184154	-0.110936565	T	T	T
0.004639458	0.166931524	-0.008945891	T	T	T
-0.003871173	0.084175165	0.119222502	T	T	T
0.143741506	-0.088627926	-0.008204796	T	T	T
0.083284693	0.157338841	0.13451717	T	T	T
-0.07310162	-0.180775896	0.013427895	T	T	T
0.051260566	-0.127738209	-0.087595127	T	T	T
0.004275467	-0.083310352	0.004692821	T	T	T
0.000156183	-0.171286497	0.120295066	T	T	T
0.013755195	-0.074192044	0.203466843	T	T	T
0.060743231	-0.017943914	-0.11131571	T	T	T
0.069240878	0.042892352	0.004412033	T	T	T
0.074742443	-0.036687269	0.118371121	T	T	T
0.060244951	0.050885447	0.203592015	T	T	T
0.087076848	0.106791667	-0.087635304	T	T	T
0.116114967	0.162115139	0.013630106	T	T	T
0.148096104	0.088005861	0.116029215	T	T	T
0.078432796	-0.184956062	0.013812351	T	T	T
-0.199106475	-0.025287658	-0.054096057	T	T	T
-0.224806174	0.050970242	0.087617652	T	T	T
-0.142419203	0.08399815	-0.026757662	T	T	T
-0.145541347	0.171202211	0.095261348	T	T	T
-0.063733307	0.217685319	-0.002650812	T	T	T
-0.156356192	0.0501953	0.19654185	T	T	T
-0.15542104	-0.163198593	-0.000914052	T	T	T
-0.147181074	-0.06540309	0.082300405	T	T	T
-0.079800073	0.026718075	-0.151041298	T	T	T
-0.067832761	-0.044372495	-0.028112786	T	T	T
-0.074213845	0.042178313	0.08966698	T	T	T
-0.069169197	-0.057146941	0.203104413	T	T	T
0.120292972	0.112370761	0.196287252	T	T	T
-0.004187708	0.080620973	-0.027563419	T	T	T
0.01478031	0.163465108	0.083358609	T	T	T
-0.015657911	0.090061472	0.204867538	T	T	T
0.074782705	0.185694754	-0.056384054	T	T	T
-0.072836557	-0.20895938	0.096119843	T	T	T
0.018255489	-0.082398139	-0.150952262	T	T	T
0.000447187	-0.165930113	-0.026247338	T	T	T
0.003413373	-0.083332246	0.090272157	T	T	T
0.062237807	0.057406005	-0.151562419	T	T	T
0.072719054	-0.037861818	-0.028720723	T	T	T
0.071260057	0.045768182	0.08990804	T	T	T
0.086274575	-0.029419028	0.204338903	T	T	T
0.142078416	0.084220833	-0.024319105	T	T	T
0.153907183	0.172494339	0.086153766	T	T	T
0.071131502	-0.217186344	0.08927055	T	T	T
0.039988911	-0.15612907	0.196797154	T	T	T
0.123010834	-0.159326906	-0.053997365	T	T	T
0.136282721	-0.089208371	0.083315254	T	T	T
0.221619971	-0.05364777	-0.005174671	T	T	T
0.215546317	0.04152644	0.090894874	T	T	T
0.303060307	-0.024202418	0.134000213	T	T	T
0.354121363	-0.043131584	0.156633522	T	T	T
0.273036522	-0.062395999	0.12062184	T	T	T
0.281923096	0.006555396	0.171685174	T	T	T
0.316864318	0.007055427	0.093474347	T	T	T
0.254769309	0.022672293	0.160084993	T	T	T
0.290898096	0.026643879	0.083902749	T	T	T
0.374806172	-0.014279687	0.166933493	T	T	T
0.346918336	-0.064768119	0.185745277	T	T	T
0.371790016	-0.062825674	0.130785863	T	T	T