CdSe                                 
   1.0     
     32.0   0.0    0.0
     0.0   25.0    0.0
     0.0   0.0    22.0
   Cd   Se   P   C   O   H  
   33   33   1   1   3   5
Direct
0.1941838	-0.042573733	0.078232867	T	T	T
-0.198783567	0.023426667	0.013643533	T	T	T
-0.176150633	-0.0037794	0.135033467	T	T	T
-0.134897133	0.018366533	-0.0874885	T	T	T
-0.1203856	0.152747867	0.013674133	T	T	T
-0.147976467	0.0878873	0.118185267	T	T	T
0.207581333	0.0287961	0.009106467	T	T	T
-0.059740067	0.1890545	0.080439267	T	T	T
0.0921585	-0.152428633	0.134370333	T	T	T
-0.148109567	-0.078856833	-0.009193433	T	T	T
-0.133890433	-0.148602633	0.082948033	T	T	T
-0.046195267	-0.046098833	-0.110981367	T	T	T
-0.074258733	0.0408986	0.004316	T	T	T
-0.0706277	-0.043307	0.1156289	T	T	T
-0.072464433	0.028337567	0.2000039	T	T	T
-0.0141513	0.0603646	-0.111133233	T	T	T
0.005080333	0.166871333	-0.013554133	T	T	T
-0.000569233	0.083521133	0.115506433	T	T	T
0.143309033	-0.088020767	-0.013431033	T	T	T
0.0870517	0.152850767	0.134216333	T	T	T
-0.074228267	-0.184734933	0.0139084	T	T	T
0.051084	-0.129189067	-0.087783867	T	T	T
0.000300567	-0.087490867	0.003892133	T	T	T
-0.004262333	-0.175830133	0.120415333	T	T	T
0.0094826	-0.0785544	0.203103267	T	T	T
0.060480267	-0.0188126	-0.1110861	T	T	T
0.0696437	0.041431533	0.004025833	T	T	T
0.069862567	-0.042143533	0.115966767	T	T	T
0.0602797	0.046309933	0.199525267	T	T	T
0.087672967	0.1062209	-0.0879138	T	T	T
0.1211174	0.153400933	0.0096907	T	T	T
0.149282167	0.081913433	0.1159841	T	T	T
0.0740064	-0.185101933	0.013734	T	T	T
-0.199799067	-0.026703	-0.055033233	T	T	T
-0.223828267	0.051146267	0.0871001	T	T	T
-0.1448699	0.082710233	-0.027372967	T	T	T
-0.1409688	0.1703557	0.0960412	T	T	T
-0.0638813	0.215060567	-0.003980233	T	T	T
-0.155694933	0.0499846	0.197255967	T	T	T
-0.1558639	-0.163349833	-0.0017993	T	T	T
-0.149900567	-0.065465567	0.082140233	T	T	T
-0.079866	0.0234184	-0.151209367	T	T	T
-0.0687548	-0.0428307	-0.028009467	T	T	T
-0.073130833	0.041946433	0.089643233	T	T	T
-0.072180067	-0.057124667	0.201653067	T	T	T
0.121802733	0.107432033	0.195879033	T	T	T
-0.003348967	0.0799311	-0.028480033	T	T	T
0.021008867	0.162134933	0.079937633	T	T	T
-0.0135555	0.089154067	0.2012482	T	T	T
0.077816767	0.1849509	-0.0564386	T	T	T
-0.078365833	-0.211127167	0.0965917	T	T	T
0.0185532	-0.083994567	-0.1512038	T	T	T
-0.002647133	-0.1690876	-0.028983233	T	T	T
-0.001126033	-0.0882431	0.089248267	T	T	T
0.062389267	0.056175233	-0.1515328	T	T	T
0.069377233	-0.040580633	-0.0284463	T	T	T
0.072606433	0.0408231	0.089323333	T	T	T
0.083054933	-0.034941767	0.201695533	T	T	T
0.142988267	0.0758266	-0.027130733	T	T	T
0.1585307	0.1650192	0.083274067	T	T	T
0.0660703	-0.2210958	0.0878165	T	T	T
0.035105067	-0.160684167	0.1972451	T	T	T
0.121442467	-0.161791733	-0.053438267	T	T	T
0.129363867	-0.0971875	0.079922067	T	T	T
0.220889867	-0.055153667	-0.0045859	T	T	T
0.2186262	0.035362833	0.0986204	T	T	T
0.2772636	0.1140294	0.013519267	T	T	T
0.324095033	0.1390684	-0.012439533	T	T	T
0.2610265	0.074221433	-0.0125554	T	T	T
0.293008033	0.101738533	0.062387967	T	T	T
0.242130267	0.1533262	0.0166434	T	T	T
0.273863633	0.077420433	0.076743933	T	T	T
0.219063433	0.152859133	0.041710267	T	T	T
0.3373271	0.166153467	0.0089566	T	T	T
0.349979367	0.113234967	-0.017780367	T	T	T
0.313543033	0.152956467	-0.0450445	T	T	T