Sb2Te3                                  
   1.00000000000000     
    -2.0000000000000000    0.0000000000000000   10.4437670567857204
     1.2521430992729410   -2.1687754662684289   10.4437670567857204
     1.2521430992729410    2.1687754662684289   10.4437670567857204
   Sb   Te
   2   3
Selective dynamics
Direct
  0.3967965849999970  0.3967965849999970  0.3967965849999970   F   F   F
  0.6032034033854359  0.6032034033854359  0.6032034033854359   F   F   F
  0.0000000000000000  0.0000000000000000  0.0000000000000000   F   F   F
  0.7845713347659498  0.7845713347659498  0.7845713347659498   F   F   F
  0.2154286535599965  0.2154286535599965  0.2154286535599965   F   F   F
 
  0.00000000E+00  0.00000000E+00  0.00000000E+00
  0.00000000E+00  0.00000000E+00  0.00000000E+00
  0.00000000E+00  0.00000000E+00  0.00000000E+00
  0.00000000E+00  0.00000000E+00  0.00000000E+00
  0.00000000E+00  0.00000000E+00  0.00000000E+00
