SYSTEM = Sb2Te3 

Start parameter for this run:
###ISTART  = 1         ! start job from scratch (see INIWAV)
INIWAV  = 1         ! Fill wavefunctions arrays with random numbers
###ICHARG  = 1         ! Calculat charge density from initial wave function

Electronic relaxation:
ENCUT   = 288.0     ! Cutoff energy for plane waves basis set in eV  
ALGO    = FAST      ! A Davidson blocked iteration scheme 
NELMIN  = 4         ! Minimum number of eletronic selfconsistency (SC) steps
NELM    = 40        ! Maximum number of electronic SC steps
NELMDL  = -8        ! Number of NON-selfconsistency steps
EDIFF   = 1.0E-6    ! Global-break condition for the electronic SC-loop (ELM)

#####Hybrid Functional calculations:
#####LHFCALC = .TRUE.
#####ALGO    = DAMPED    ! A damped velocity friction algorithm is selected (IALGO=53). HYBRID
#####TIME    = 0.70      ! Trial time step for IALGO=5X
#####HFLMAX  = 6         ! It might be required to increase, if the system contains f-electrons.
#####HFSCREEN= 0.300     ! Switch from the PBE0 to HSE03

Calculation mode:
PREC    = Accurate  ! Calcululation level (Changes FFT-grids) 
ISPIN   = 1         ! Non-spin-polarized calculations 
ADDGRID = .TRUE.    ! PAW flag
LASPH   = .TRUE.    ! non-spherical elements in the PAW method important for GGA

#####PREC    = Normal
#####LREAL   = AUTO
#####LMAXMIX = 6         ! PAW flag important for f-electron system

Ionic relaxation:
NSW     = 10         ! Number of ionic steps
EDIFFG  = -0.00500   ! stop if all forces are smaller than |EDIFFG|
IBRION  = 2          !
ISIF    = 0          ! Force, stress, relax ions, change cell shape, change cell volume
POTIM   = 0.50

Integration over the Brillouin zone (BZ):
ISMEAR  = 0          ! 
SIGMA   = 0.010

#####DOS calculation:
#####LORBIT  = 10        ! Calculate the DOS without providing the Wigner Seitz radius
#####NEDOS   = 1001      ! Number of points to calculate the DOS

OUTCAR size:
NWRITE  = 2         ! Determines how much information will be written in OUTCAR

Key for parallel mode calculation:
NPAR = 4 
LPLANE = .TRUE.
 
EOF
