Sb2Te3                                  
    1.000000000000000     
    -2.0    0.0000000000000000   10.4437670567857200
     1.2521430992729410   -2.1687754662684290   10.4437670567857200
     1.2521430992729410    2.1687754662684290   10.4437670567857200
   Sb   Te
   2   3
Selective dynamics
Direct
  0.396796585  0.396796585  0.396796585   F   F   F
  0.6032034033854339  0.6032034033854339  0.6032034033854339   F   F   F
  0.0000000000000000  0.0000000000000000  0.0000000000000000   F   F   F
  0.7845713347659475  0.7845713347659475  0.7845713347659475   F   F   F
  0.2154286535599988  0.2154286535599988  0.2154286535599988   F   F   F

  0.00000000E+00  0.00000000E+00  0.00000000E+00
  0.00000000E+00  0.00000000E+00  0.00000000E+00
  0.00000000E+00  0.00000000E+00  0.00000000E+00
  0.00000000E+00  0.00000000E+00  0.00000000E+00
  0.00000000E+00  0.00000000E+00  0.00000000E+00
