SYSTEM = CdSe 

ISTART  = 0
INIWAV  = 1

ENCUT   = 150.0
ALGO    = 48
NELMIN  = 4
NELM    = 40
NELMDL  = -8
EDIFF   = 1.0E-6

PREC    = Accurate
ISPIN   = 1

NSW     = 25
EDIFFG  = -0.0100
IBRION  = 2
ISIF    = 2
POTIM   = 0.5
NFREE   = 2

ISMEAR  = 0
SIGMA   = 0.010

NWRITE  = 2

# !!speeding up & parallelization
LPLANE=.TRUE.
LSCALU=.FALSE.
NSIM=4
IALGO=48
LREAL=AUTO

 
EOF