&FORCE_EVAL
  METHOD QS
  &DFT
    BASIS_SET_FILE_NAME /usr/local/u/jmlarkin/CP2K/CdSe/CP2K_opt_DZ/GTH_BASIS_SETS2 
    POTENTIAL_FILE_NAME /usr/local/u/jmlarkin/CP2K/CdSe/CP2K_opt_DZ/POTENTIAL_QS 
    &MGRID
      CUTOFF 350 
      NGRIDS 5 
    &END MGRID
#    &PRINT
#      &MO_CUBES
#          NHOMO 6
#          NLUMO 6
#      &END
#    &END
    &QS
#       EPS_DEFAULT 1.0E-12
#       MAP_CONSISTENT
## for MD use  this setup 
       EXTRAPOLATION PS
       EXTRAPOLATION_ORDER 3
## for opt use 
#       LINEAR_PS 
    &END QS
    &SCF
      SCF_GUESS restart
      EPS_SCF 5.0E-7
#      NROW_BLOCK 24
#      NCOL_BLOCK 24
      &OUTER_SCF ON 
        MAX_SCF 20
        EPS_SCF  5.0E-7
#        OPTIMIZER DIIS 
      &END OUTER_SCF
#      SCF_GUESS ATOMIC	
      &OT ON 
        N_DIIS 7
        MINIMIZER CG
#        PRECONDITIONER FULL_SINGLE_INVERSE 
      &END
      &PRINT
        &RESTART
          &EACH
            QS_SCF 25
          &END EACH
          ADD_LAST NUMERIC
        &END RESTART
      &END PRINT 
    &END SCF
    &XC
      &XC_FUNCTIONAL PBE
      &END XC_FUNCTIONAL
      &vdW_POTENTIAL
       DISPERSION_FUNCTIONAL PAIR_POTENTIAL
       &PAIR_POTENTIAL
          TYPE DFTD2
          REFERENCE_FUNCTIONAL PBE
       &END PAIR_POTENTIAL
      &END vdW_POTENTIAL
    &END XC
  &END DFT
  &SUBSYS
    &CELL
     A 30.0 0 0 
     B 0 30.0 0 
     C 0 0 30.0 
    &END CELL
    &COORD
     SCALED
     Cd 5.825514 -1.27721199 2.34698601
     Cd -5.96350701 0.70280001 0.40930599
     Cd -5.28451899 -0.113382 4.05100401
     Cd -4.04691399 0.55099599 -2.624655
     Cd -3.611568 4.58243601 0.41022399
     Cd -4.43929401 2.636619 3.54555801
     Cd 6.22743999 0.863883 0.27319401
     Cd -1.79220201 5.671635 2.41317801
     Cd 2.764755 -4.57285899 4.03110999
     Cd -4.44328701 -2.36570499 -0.27580299
     Cd -4.01671299 -4.45807899 2.48844099
     Cd -1.38585801 -1.38296499 -3.32944101
     Cd -2.22776199 1.226958 0.12948
     Cd -2.118831 -1.29921 3.468867
     Cd -2.17393299 0.85012701 6.000117
     Cd -0.424539 1.810938 -3.33399699
     Cd 0.15240999 5.00613999 -0.40662399
     Cd -0.01707699 2.50563399 3.46519299
     Cd 4.29927099 -2.64062301 -0.40293099
     Cd 2.611551 4.58552301 4.02648999
     Cd -2.22684801 -5.54204799 0.417252
     Cd 1.53252 -3.87567201 -2.63351601
     Cd 0.00901701 -2.62472601 0.11676399
     Cd -0.12786999 -5.27490399 3.61245999
     Cd 0.284478 -2.356632 6.09309801
     Cd 1.81440801 -0.564378 -3.332583
     Cd 2.089311 1.24294599 0.12077499
     Cd 2.09587701 -1.26430599 3.47900301
     Cd 1.808391 1.38929799 5.98575801
     Cd 2.63018901 3.186627 -2.637414
     Cd 3.633522 4.60202799 0.290721
     Cd 4.47846501 2.45740299 3.479523
     Cd 2.220192 -5.55305799 0.41202
     Se -5.99397201 -0.80109 -1.65099699
     Se -6.71484801 1.53438801 2.613003
     Se -4.346097 2.48130699 -0.82118901
     Se -4.229064 5.110671 2.881236
     Se -1.916439 6.45181701 -0.11940699
     Se -4.67084799 1.499538 5.91767901
     Se -4.675917 -4.90049499 -0.053979
     Se -4.49701701 -1.96396701 2.46420699
     Se -2.39598 0.702552 -4.53628101
     Se -2.062644 -1.284921 -0.84028401
     Se -2.19392499 1.25839299 2.68929699
     Se -2.16540201 -1.71374001 6.04959201
     Se 3.65408199 3.22296099 5.87637099
     Se -0.10046901 2.397933 -0.85440099
     Se 0.63026601 4.86404799 2.39812899
     Se -0.406665 2.67462201 6.037446
     Se 2.33450301 5.548527 -1.693158
     Se -2.35097499 -6.33381501 2.897751
     Se 0.556596 -2.51983701 -4.536114
     Se -0.07941399 -5.072628 -0.86949699
     Se -0.03378099 -2.647293 2.67744801
     Se 1.87167801 1.68525699 -4.545984
     Se 2.08131699 -1.21741899 -0.853389
     Se 2.17819299 1.224693 2.67969999
     Se 2.49164799 -1.04825301 6.05086599
     Se 4.28964801 2.274798 -0.81392199
     Se 4.755921 4.950576 2.49822201
     Se 1.982109 -6.632874 2.634495
     Se 1.05315201 -4.82052501 5.917353
     Se 3.64327401 -4.85375199 -1.60314801
     Se 3.88091601 -2.915625 2.39766201
     Se 6.62669601 -1.65461001 -0.137577
     Se 6.558786 1.06088499 2.958612
     P 8.317908 3.420882 0.40557801
     C 9.72285099 4.172052 -0.37318599
     O 7.830795 2.22664299 -0.376662
     O 8.79024099 3.05215599 1.87163901
     O 7.26390801 4.599786 0.499302
     H 8.21590899 2.32261299 2.30231799
     H 6.57190299 4.58577399 1.25130801
     H 10.119813 4.98460401 0.268698
     H 10.49938101 3.39704901 -0.53341101
     H 9.40629099 4.58869401 -1.351335
  &END COORD
  &KIND Cd
      BASIS_SET DZVP-MOLOPT-SR-GTH-q12
      POTENTIAL GTH-PADE-q2
  &END KIND
  &KIND Cd_ghost
    BASIS_SET DZVP-MOLOPT-SR-GTH-q12
    GHOST
  &END KIND
  &KIND Se
      BASIS_SET DZVP-MOLOPT-SR-GTH-q6
      POTENTIAL GTH-PADE-q6
  &END KIND
  &KIND Se_ghost
    BASIS_SET DZVP-MOLOPT-SR-GTH-q6
    GHOST
  &END KIND
  &KIND P
      BASIS_SET DZVP-MOLOPT-SR-GTH-q5
      POTENTIAL GTH-PADE-q5
  &END KIND
  &KIND P_ghost
    BASIS_SET DZVP-MOLOPT-SR-GTH-q5
    GHOST
  &END KIND
  &KIND C
      BASIS_SET DZVP-MOLOPT-SR-GTH-q4
      POTENTIAL GTH-PBE-q4
  &END KIND
  &KIND C_ghost
    BASIS_SET DZVP-MOLOPT-SR-GTH-q4
    GHOST
  &END KIND
  &KIND O
      BASIS_SET DZVP-MOLOPT-SR-GTH-q6
      POTENTIAL GTH-PBE-q6
  &END KIND
  &KIND O_ghost
    BASIS_SET DZVP-MOLOPT-SR-GTH-q6
    GHOST
  &END KIND
  &KIND H
      BASIS_SET DZVP-MOLOPT-SR-GTH-q1
      POTENTIAL GTH-PBE-q1
  &END KIND
  &KIND H_ghost
    BASIS_SET DZVP-MOLOPT-SR-GTH-q1
    GHOST
  &END KIND
 &END SUBSYS
&END FORCE_EVAL
&GLOBAL
  PROJECT temp
  RUN_TYPE GEO_OPT 
  PRINT_LEVEL LOW
&END GLOBAL
&MOTION
  &GEO_OPT
    MAX_FORCE 0.0004
    MAX_ITER 2000
    OPTIMIZER BFGS
    TYPE MINIMIZATION 
#    OPTIMIZER CG
#    MAX_DR 0.001
#    RMS_DR 0.0005
#    MAX_FORCE 0.00015
#    RMS_FORCE 0.0001
  &END GEO_OPT
  &CONSTRAINT
    &FIXED_ATOMS
     LIST  1 2 3 4 5 6 7 8 9 10 11 12 13 14 15 16
     LIST  17 18 19 20 21 22 23 24 25 26 27 28 29 30 31 32
     LIST  33 34 35 36 37 38 39 40 41 42 43 44 45 46 47 48
     LIST  49 50 51 52 53 54 55 56 57 58 59 60 61 62 63 64
     LIST  65 66 67 68 69 70 71 72 73 74 75 76
   &END FIXED_ATOMS
  &END CONSTRAINT
&END MOTION
