 # Version information for this restart file 
 # current date 2011-06-12 02:18:06.811
 # current working dir /usr/local/u/jmlarkin/CP2K/CdSe/CP2K_opt_DZ
 # Program compiled at                              Tue Jun  7 13:15:52 CDT 2011
 # Program compiled on                                                 diamond01
 # Program compiled for                                       Linux-x86-64-intel
 # Last CVS entry                     cp2k_info.F/1.511/Wed Jan 19 04:35:13 2011
 &GLOBAL
   PRINT_LEVEL  LOW
   PROJECT_NAME temp
   RUN_TYPE  GEO_OPT
 &END GLOBAL
 &MOTION
   &GEO_OPT
     TYPE  MINIMIZATION
     OPTIMIZER  BFGS
     MAX_ITER            2000
     MAX_FORCE     4.0000000000000002E-04
     STEP_START_VAL               1
   &END GEO_OPT
   &CONSTRAINT
     &FIXED_ATOMS
       LIST               1              2              3              4              5              6              7 \
                     8              9             10             11             12             13             14             15 \
                    16
       LIST              17             18             19             20             21             22             23 \
                    24             25             26             27             28             29             30             31 \
                    32
       LIST              33             34             35             36             37             38             39 \
                    40             41             42             43             44             45             46             47 \
                    48
       LIST              49             50             51             52             53             54             55 \
                    56             57             58             59             60             61             62             63 \
                    64
       LIST              65             66             67             68             69             70             71 \
                    72             73             74             75             76
     &END FIXED_ATOMS
   &END CONSTRAINT
 &END MOTION
 &FORCE_EVAL
   METHOD  QS
   &DFT
     BASIS_SET_FILE_NAME /usr/local/u/jmlarkin/CP2K/CdSe/CP2K_opt_DZ/GTH_BASIS_SETS2
     POTENTIAL_FILE_NAME /usr/local/u/jmlarkin/CP2K/CdSe/CP2K_opt_DZ/POTENTIAL_QS
     &SCF
       EPS_SCF     4.9999999999999998E-07
       SCF_GUESS  RESTART
       &OT  T
         MINIMIZER  CG
         N_HISTORY_VEC               7
       &END OT
       &OUTER_SCF  T
         EPS_SCF     4.9999999999999998E-07
         MAX_SCF              20
       &END OUTER_SCF
       &PRINT
         &RESTART  SILENT
           ADD_LAST  NUMERIC
           &EACH
             QS_SCF              25
           &END EACH
         &END RESTART
       &END PRINT
     &END SCF
     &QS
       EXTRAPOLATION  PS
       EXTRAPOLATION_ORDER               3
     &END QS
     &MGRID
       NGRIDS               5
       CUTOFF     3.5000000000000000E+02
     &END MGRID
     &XC
       DENSITY_CUTOFF     1.0000000000000000E-10
       GRADIENT_CUTOFF     1.0000000000000000E-10
       TAU_CUTOFF     1.0000000000000000E-10
       &XC_FUNCTIONAL  NO_SHORTCUT
         &PBE  T
         &END PBE
       &END XC_FUNCTIONAL
       &VDW_POTENTIAL
         POTENTIAL_TYPE  PAIR_POTENTIAL
         &PAIR_POTENTIAL
           TYPE  DFTD2
           REFERENCE_FUNCTIONAL PBE
         &END PAIR_POTENTIAL
       &END VDW_POTENTIAL
     &END XC
   &END DFT
   &SUBSYS
     &CELL
       A     3.0000000000000004E+01    0.0000000000000000E+00    0.0000000000000000E+00
       B     0.0000000000000000E+00    3.0000000000000004E+01    0.0000000000000000E+00
       C     0.0000000000000000E+00    0.0000000000000000E+00    3.0000000000000004E+01
       MULTIPLE_UNIT_CELL               1              1              1
     &END CELL
     &COORD
Cd    5.8255140000000001E+00   -1.2772119899999999E+00    2.3469860099999997E+00
Cd   -5.9635070099999998E+00    7.0280001000000003E-01    4.0930599000000001E-01
Cd   -5.2845189899999996E+00   -1.1338200000000000E-01    4.0510040099999998E+00
Cd   -4.0469139900000002E+00    5.5099598999999999E-01   -2.6246550000000002E+00
Cd   -3.6115680000000001E+00    4.5824360099999994E+00    4.1022398999999993E-01
Cd   -4.4392940100000002E+00    2.6366190000000000E+00    3.5455580099999997E+00
Cd    6.2274399899999997E+00    8.6388299999999985E-01    2.7319400999999999E-01
Cd   -1.7922020100000000E+00    5.6716350000000002E+00    2.4131780100000002E+00
Cd    2.7647549999999996E+00   -4.5728589900000003E+00    4.0311099900000000E+00
Cd   -4.4432870099999997E+00   -2.3657049899999998E+00   -2.7580299000000003E-01
Cd   -4.0167129900000003E+00   -4.4580789899999997E+00    2.4884409900000000E+00
Cd   -1.3858580099999998E+00   -1.3829649900000001E+00   -3.3294410099999996E+00
Cd   -2.2277619899999999E+00    1.2269580000000000E+00    1.2948000000000001E-01
Cd   -2.1188310000000001E+00   -1.2992100000000000E+00    3.4688669999999999E+00
Cd   -2.1739329900000000E+00    8.5012701000000002E-01    6.0001169999999995E+00
Cd   -4.2453899999999994E-01    1.8109379999999997E+00   -3.3339969899999997E+00
Cd    1.5240999000000000E-01    5.0061399900000003E+00   -4.0662398999999994E-01
Cd   -1.7076990000000000E-02    2.5056339900000002E+00    3.4651929899999994E+00
Cd    4.2992709900000001E+00   -2.6406230100000001E+00   -4.0293098999999993E-01
Cd    2.6115509999999995E+00    4.5855230100000002E+00    4.0264899900000000E+00
Cd   -2.2268480099999999E+00   -5.5420479899999995E+00    4.1725199999999996E-01
Cd    1.5325200000000001E+00   -3.8756720099999997E+00   -2.6335160099999997E+00
Cd    9.0170100000000006E-03   -2.6247260099999998E+00    1.1676399000000000E-01
Cd   -1.2786998999999999E-01   -5.2749039900000003E+00    3.6124599899999996E+00
Cd    2.8447799999999995E-01   -2.3566319999999998E+00    6.0930980100000003E+00
Cd    1.8144080100000000E+00   -5.6437800000000005E-01   -3.3325830000000001E+00
Cd    2.0893109999999999E+00    1.2429459899999997E+00    1.2077498999999998E-01
Cd    2.0958770100000002E+00   -1.2643059900000000E+00    3.4790030100000000E+00
Cd    1.8083910000000001E+00    1.3892979900000000E+00    5.9857580099999996E+00
Cd    2.6301890099999996E+00    3.1866269999999997E+00   -2.6374140000000001E+00
Cd    3.6335220000000001E+00    4.6020279899999998E+00    2.9072099999999995E-01
Cd    4.4784650099999990E+00    2.4574029899999998E+00    3.4795229999999995E+00
Cd    2.2201919999999999E+00   -5.5530579900000001E+00    4.1201999999999994E-01
Se   -5.9939720099999994E+00   -8.0108999999999997E-01   -1.6509969899999999E+00
Se   -6.7148480099999990E+00    1.5343880099999998E+00    2.6130029999999995E+00
Se   -4.3460969999999994E+00    2.4813069899999998E+00   -8.2118901000000000E-01
Se   -4.2290640000000002E+00    5.1106709999999991E+00    2.8812359999999999E+00
Se   -1.9164389999999998E+00    6.4518170100000001E+00   -1.1940699000000000E-01
Se   -4.6708479900000004E+00    1.4995380000000000E+00    5.9176790099999987E+00
Se   -4.6759170000000001E+00   -4.9004949899999994E+00   -5.3978999999999999E-02
Se   -4.4970170100000004E+00   -1.9639670099999997E+00    2.4642069899999997E+00
Se   -2.3959799999999998E+00    7.0255199999999984E-01   -4.5362810099999997E+00
Se   -2.0626440000000001E+00   -1.2849210000000000E+00   -8.4028400999999986E-01
Se   -2.1939249900000002E+00    1.2583929899999999E+00    2.6892969899999999E+00
Se   -2.1654020100000002E+00   -1.7137400100000000E+00    6.0495920099999987E+00
Se    3.6540819899999999E+00    3.2229609899999994E+00    5.8763709899999998E+00
Se   -1.0046900999999998E-01    2.3979330000000001E+00   -8.5440098999999992E-01
Se    6.3026600999999993E-01    4.8640479899999995E+00    2.3981289899999996E+00
Se   -4.0666499999999994E-01    2.6746220099999998E+00    6.0374459999999992E+00
Se    2.3345030100000002E+00    5.5485269999999991E+00   -1.6931579999999997E+00
Se   -2.3509749900000001E+00   -6.3338150100000004E+00    2.8977509999999995E+00
Se    5.5659599999999998E-01   -2.5198370099999998E+00   -4.5361140000000004E+00
Se   -7.9413989999999990E-02   -5.0726279999999999E+00   -8.6949698999999991E-01
Se   -3.3780989999999990E-02   -2.6472929999999995E+00    2.6774480100000000E+00
Se    1.8716780099999999E+00    1.6852569900000001E+00   -4.5459839999999998E+00
Se    2.0813169899999999E+00   -1.2174189900000001E+00   -8.5338899999999984E-01
Se    2.1781929899999994E+00    1.2246930000000000E+00    2.6796999899999996E+00
Se    2.4916479899999997E+00   -1.0482530099999998E+00    6.0508659900000001E+00
Se    4.2896480099999996E+00    2.2747980000000001E+00   -8.1392198999999998E-01
Se    4.7559209999999998E+00    4.9505759999999999E+00    2.4982220100000001E+00
Se    1.9821089999999997E+00   -6.6328740000000002E+00    2.6344949999999998E+00
Se    1.0531520100000000E+00   -4.8205250099999999E+00    5.9173529999999994E+00
Se    3.6432740099999994E+00   -4.8537519899999992E+00   -1.6031480099999997E+00
Se    3.8809160100000000E+00   -2.9156249999999995E+00    2.3976620099999995E+00
Se    6.6266960099999999E+00   -1.6546100100000001E+00   -1.3757700000000000E-01
Se    6.5587859999999996E+00    1.0608849899999999E+00    2.9586119999999996E+00
P    8.3179079999999992E+00    3.4208819999999998E+00    4.0557800999999993E-01
C    9.7228509899999978E+00    4.1720519999999999E+00   -3.7318599000000002E-01
O    7.8307949999999993E+00    2.2266429900000002E+00   -3.7666200000000000E-01
O    8.7902409899999991E+00    3.0521559899999997E+00    1.8716390099999998E+00
O    7.2639080099999989E+00    4.5997859999999999E+00    4.9930199999999997E-01
H    8.2159089900000009E+00    2.3226129900000001E+00    2.3023179900000001E+00
H    6.5719029899999999E+00    4.5857739899999999E+00    1.2513080100000000E+00
H    1.0119812999999999E+01    4.9846040100000000E+00    2.6869799999999994E-01
H    1.0499381010000000E+01    3.3970490099999999E+00   -5.3341101000000002E-01
H    9.4062909900000005E+00    4.5886940100000002E+00   -1.3513349999999997E+00
       SCALED  T
     &END COORD
     &KIND Cd
       BASIS_SET DZVP-MOLOPT-SR-GTH-q12
       POTENTIAL GTH-PADE-q2
       &BASIS
 1
 2 0 3 5 2 2 2 1
  0.2617301292227000E+01  0.5694286284300000E-01  0.8522946504200000E-01  0.3227731791100000E-01  0.5151084390400000E-01 -0.2704061540640000E+00 -0.6492030695000001E-01 -0.3877055759500000E-01
  0.1315617684053000E+01 -0.1119104275380000E+00 -0.2027080607680000E+00 -0.9663484289300001E-01 -0.5978392826100000E-01 -0.4078393109460000E+00 -0.1525531009150000E+00 -0.1101076263460000E+00
  0.5733758998530000E+00 -0.4201737858130000E+00  0.1542506765787000E+01 -0.8310793362200000E-01  0.6154556107660000E+00 -0.3632334487730000E+00  0.3212183672300000E-01 -0.3401428417100000E-01
  0.2222222137630000E+00  0.5643761166180000E+00 -0.2827046600082000E+01  0.4195492549900000E+00 -0.1767302700397000E+01 -0.1689074035890000E+00 -0.1173917089800000E+00 -0.1072545752330000E+00
  0.7630713652500000E-01  0.7899670598060000E+00  0.1744522478935000E+01  0.7950898736720000E+00  0.1158998093237000E+01 -0.1317284372300000E-01  0.1045519107194000E+01  0.1059683456620000E+01
         # Basis set name:  DZVP-MOLOPT-SR-GTH-Q12  for symbol:  CD
         # Basis set read from the basis set filename: /usr/local/u/jmlarkin/CP2K/CdSe/CP2K_opt_DZ/GTH_BASIS_SETS2
       &END BASIS
       &POTENTIAL
 2
  0.6250000000000000E+00 1 -0.1796837990000000E+01
 3
  0.8284646700000000E+00 3  0.1485292410000000E+01  0.1645060600000000E+00 -0.9953846000000000E-01
 -0.4247528300000000E+00  0.2570071900000000E+00
 -0.4079862700000000E+00
  0.9728725400000000E+00 2  0.4692084300000000E+00  0.1893614900000000E+00
 -0.4481110700000000E+00
  0.1240949000000000E+01 1  0.6541163999999999E-01
         # Potential name:  GTH-PADE-Q2  for symbol:  CD
         # Potential read from the potential filename: /usr/local/u/jmlarkin/CP2K/CdSe/CP2K_opt_DZ/POTENTIAL_QS
       &END POTENTIAL
     &END KIND
     &KIND Cd_ghost
       BASIS_SET DZVP-MOLOPT-SR-GTH-q12
       GHOST  T
     &END KIND
     &KIND Se
       BASIS_SET DZVP-MOLOPT-SR-GTH-q6
       POTENTIAL GTH-PADE-q6
       &BASIS
 1
 2 0 2 4 2 2 1
  0.1465689267622000E+01  0.5223153277600000E+00  0.1094344860470000E+00  0.3026293461320000E+00  0.3973531858070000E+00  0.1208972587500000E+00
  0.1029752381010000E+01 -0.1776170105780000E+00  0.9198607076970000E+00 -0.3493605676220000E+00 -0.4101698225440000E+00 -0.2915167527160000E+00
  0.3035754713490000E+00 -0.1057800048233000E+01 -0.1719933785859000E+01 -0.6533551857850000E+00 -0.6265451354429999E+00 -0.1069566209605000E+01
  0.1071731474170000E+00 -0.2991013850350000E+00  0.2073037006457000E+01 -0.3811868744820000E+00  0.2208055478040000E+01 -0.2966588942090000E+00
         # Basis set name:  DZVP-MOLOPT-SR-GTH-Q6  for symbol:  SE
         # Basis set read from the basis set filename: /usr/local/u/jmlarkin/CP2K/CdSe/CP2K_opt_DZ/GTH_BASIS_SETS2
       &END BASIS
       &POTENTIAL
 2 4
  0.5100000000000000E+00 0
 3
  0.4325310800000000E+00 3  0.5145130840000000E+01 -0.7947396700000000E+00 -0.3340513700000000E+00
  0.2052009000000000E+01  0.8625169300000000E+00
 -0.1369203170000000E+01
  0.4724725200000000E+00 2  0.2858806070000000E+01  0.2496038400000000E+00
 -0.5906705000000000E+00
  0.6134201300000000E+00 1  0.4348288800000000E+00
         # Potential name:  GTH-PADE-Q6  for symbol:  SE
         # Potential read from the potential filename: /usr/local/u/jmlarkin/CP2K/CdSe/CP2K_opt_DZ/POTENTIAL_QS
       &END POTENTIAL
     &END KIND
     &KIND Se_ghost
       BASIS_SET DZVP-MOLOPT-SR-GTH-q6
       GHOST  T
     &END KIND
     &KIND P
       BASIS_SET DZVP-MOLOPT-SR-GTH-q5
       POTENTIAL GTH-PADE-q5
       &BASIS
 1
 2 0 2 4 2 2 1
  0.1631862170786000E+01  0.3350741153000000E+00  0.3415127488000000E+00  0.1232995476000000E+00  0.1344596184000000E+00  0.1746715060000000E+00
  0.7084326853190001E+00 -0.2308825260000000E-01  0.8045537600000000E-02 -0.3515113767000000E+00 -0.3895573924000000E+00  0.5030292151000000E+00
  0.2849684836540000E+00 -0.9738191297000000E+00 -0.8512469311999999E+00 -0.8068705571000000E+00 -0.1388843743000000E+00  0.6991844239000000E+00
  0.9801182368899999E-01 -0.2929068840000000E+00  0.1328906840600000E+01 -0.5179338918000000E+00  0.1062071606300000E+01  0.4074609062000000E+00
         # Basis set name:  DZVP-MOLOPT-SR-GTH-Q5  for symbol:  P
         # Basis set read from the basis set filename: /usr/local/u/jmlarkin/CP2K/CdSe/CP2K_opt_DZ/GTH_BASIS_SETS2
       &END BASIS
       &POTENTIAL
 2 3
  0.4300000000000000E+00 1 -0.6654219810000000E+01
 2
  0.3898028400000000E+00 2  0.6842135560000000E+01 -0.1493690900000000E+01
  0.3856693320000000E+01
  0.4407958500000000E+00 1  0.3282605920000000E+01
         # Potential name:  GTH-PADE-Q5  for symbol:  P
         # Potential read from the potential filename: /usr/local/u/jmlarkin/CP2K/CdSe/CP2K_opt_DZ/POTENTIAL_QS
       &END POTENTIAL
     &END KIND
     &KIND P_ghost
       BASIS_SET DZVP-MOLOPT-SR-GTH-q5
       GHOST  T
     &END KIND
     &KIND C
       BASIS_SET DZVP-MOLOPT-SR-GTH-q4
       POTENTIAL GTH-PBE-q4
       &BASIS
 1
 2 0 2 5 2 2 1
  0.5605330751705000E+01  0.1115328819000000E+00  0.4665074832000000E+00 -0.6486897849999999E-01 -0.5547569340000000E-01  0.2995277460000000E-01
  0.2113016390533000E+01  0.1531421941000000E+00  0.1441132128000000E+00 -0.2004702557000000E+00 -0.2161651752000000E+00  0.7078445880000001E-01
  0.7699114548100000E+00 -0.3213968794000000E+00  0.2936488090000000E-01 -0.4131417301000000E+00 -0.4366242723000000E+00  0.6746010586000000E+00
  0.3481570863850000E+00 -0.6109264216000000E+00  0.9294703884000000E+00 -0.4153371392000000E+00  0.7840006984000000E+00  0.1736520618000000E+00
  0.1282122547100000E+00 -0.1339908628000000E+00  0.1066914331200000E+01 -0.2885276736000000E+00  0.9879081350000000E+00  0.1036317024700000E+01
         # Basis set name:  DZVP-MOLOPT-SR-GTH-Q4  for symbol:  C
         # Basis set read from the basis set filename: /usr/local/u/jmlarkin/CP2K/CdSe/CP2K_opt_DZ/GTH_BASIS_SETS2
       &END BASIS
       &POTENTIAL
 2 2
  0.3384712400000000E+00 2 -0.8803673979999999E+01  0.1339210850000000E+01
 2
  0.3025757500000000E+00 1  0.9622486650000001E+01
  0.2915069400000000E+00 0
         # Potential name:  GTH-PBE-Q4  for symbol:  C
         # Potential read from the potential filename: /usr/local/u/jmlarkin/CP2K/CdSe/CP2K_opt_DZ/POTENTIAL_QS
       &END POTENTIAL
     &END KIND
     &KIND C_ghost
       BASIS_SET DZVP-MOLOPT-SR-GTH-q4
       GHOST  T
     &END KIND
     &KIND O
       BASIS_SET DZVP-MOLOPT-SR-GTH-q6
       POTENTIAL GTH-PBE-q6
       &BASIS
 1
 2 0 2 5 2 2 1
  0.1038922801831700E+02  0.1262407229000000E+00  0.6921579790000000E-01 -0.6130203720000000E-01 -0.2686270110000000E-01  0.2984522750000000E-01
  0.3849621072005000E+01  0.1399337043000000E+00  0.1156345389000000E+00 -0.1900875117000000E+00 -0.6283021000000000E-02  0.6093973390000000E-01
  0.1388401188741000E+01 -0.4343482317000000E+00 -0.3228397194000000E+00 -0.3777269828000000E+00 -0.2248391878000000E+00  0.7323215801000000E+00
  0.4969550436550000E+00 -0.8527917909000000E+00 -0.9594401660000000E-01 -0.4542660860000000E+00  0.3803246586000000E+00  0.8935649184000000E+00
  0.1624916150400000E+00 -0.2423515378000000E+00  0.1102830348700000E+01 -0.2573889830000000E+00  0.1054102919900000E+01  0.1529541887000000E+00
         # Basis set name:  DZVP-MOLOPT-SR-GTH-Q6  for symbol:  O
         # Basis set read from the basis set filename: /usr/local/u/jmlarkin/CP2K/CdSe/CP2K_opt_DZ/GTH_BASIS_SETS2
       &END BASIS
       &POTENTIAL
 2 4
  0.2445543000000000E+00 2 -0.1666721480000000E+02  0.2487311320000000E+01
 2
  0.2209559200000000E+00 1  0.1833745811000000E+02
  0.2113324700000000E+00 0
         # Potential name:  GTH-PBE-Q6  for symbol:  O
         # Potential read from the potential filename: /usr/local/u/jmlarkin/CP2K/CdSe/CP2K_opt_DZ/POTENTIAL_QS
       &END POTENTIAL
     &END KIND
     &KIND O_ghost
       BASIS_SET DZVP-MOLOPT-SR-GTH-q6
       GHOST  T
     &END KIND
     &KIND H
       BASIS_SET DZVP-MOLOPT-SR-GTH-q1
       POTENTIAL GTH-PBE-q1
       &BASIS
 1
 2 0 1 5 2 1
  0.1006846822853300E+02 -0.3391744490000000E-01  0.5919377550000000E-01  0.9905134400000000E-02
  0.2680222868089000E+01 -0.1222022121000000E+00  0.8433183289000000E+00  0.1224495665000000E+00
  0.7915015391220001E+00 -0.4438188612000000E+00 -0.1155707115500000E+01  0.4771832409000000E+00
  0.2391161504870000E+00 -0.4531821866000000E+00  0.4947962120000000E-01  0.5479196782000000E+00
  0.8219318444100000E-01 -0.1316128615000000E+00  0.5227087380000000E+00  0.8690318540000000E+00
         # Basis set name:  DZVP-MOLOPT-SR-GTH-Q1  for symbol:  H
         # Basis set read from the basis set filename: /usr/local/u/jmlarkin/CP2K/CdSe/CP2K_opt_DZ/GTH_BASIS_SETS2
       &END BASIS
       &POTENTIAL
 1
  0.2000000000000000E+00 2 -0.4178900440000000E+01  0.7244633100000000E+00
 0
         # Potential name:  GTH-PBE-Q1  for symbol:  H
         # Potential read from the potential filename: /usr/local/u/jmlarkin/CP2K/CdSe/CP2K_opt_DZ/POTENTIAL_QS
       &END POTENTIAL
     &END KIND
     &KIND H_ghost
       BASIS_SET DZVP-MOLOPT-SR-GTH-q1
       GHOST  T
     &END KIND
     &TOPOLOGY
       MULTIPLE_UNIT_CELL               1              1              1
     &END TOPOLOGY
   &END SUBSYS
 &END FORCE_EVAL
